data;
set K:= K1 K2 K3 K4 K5 K6 K7 ;

set F:= F1 F2 ;

set Q:= Q1 Q2 ;

param T:= 45;
param V: 
	K1  K2  K3  K4  K5  K6  K7  :=
Q1	1   1   1   1   0   0   0   
Q2	0   0   0   0   1   1   1   
; # if resorce k is of type q

param TF:= 
K1 6
K2 6
K3 6
K4 6
K5 12
K6 12
K7 12
; # number of continuous time slots resource can fly

param TR:= 
K1 2
K2 2
K3 2
K4 2
K5 4
K6 4
K7 4
; #  number of continuous time slots resource k needs to rest between flights

param P:= 
K1 36
K2 36
K3 36
K4 36
K5 36
K6 36
K7 36
; #  number of continuous time slots a pilot can be present including rest times for resource k 

param N:= 
K1 4
K2 4
K3 4
K4 4
K5 2
K6 2
K7 2
; # max number of flights resource k can fly in the total time period

param A: 
	K1  K2  K3  K4  K5  K6  K7  :=
1	1   1   1   1   1   1   1   
2	1   1   1   1   1   1   1   
3	1   1   1   1   1   1   1   
4	1   1   1   1   1   1   1   
5	1   1   1   1   1   1   1   
6	1   1   1   1   1   1   1   
7	1   1   1   1   1   1   1   
8	1   1   1   1   1   1   1   
9	1   1   1   1   1   1   1   
10	1   1   1   1   1   1   1   
11	1   1   1   1   1   1   1   
12	1   1   1   1   1   1   1   
13	1   1   1   1   1   1   1   
14	1   1   1   1   1   1   1   
15	1   1   1   1   1   1   1   
16	1   1   1   1   1   1   1   
17	1   1   1   1   1   1   1   
18	1   1   1   1   1   1   1   
19	1   1   1   1   1   1   1   
20	1   1   1   1   1   1   1   
21	1   1   1   1   1   1   1   
22	1   1   1   1   1   1   1   
23	1   1   1   1   1   1   1   
24	1   1   1   1   1   1   1   
25	1   1   1   1   1   1   1   
26	1   1   1   1   1   1   1   
27	1   1   1   1   1   1   1   
28	1   1   1   1   1   1   1   
29	1   1   1   1   1   1   1   
30	1   1   1   1   1   1   1   
31	1   1   1   1   1   1   1   
32	1   1   1   1   1   1   1   
33	1   1   1   1   1   1   1   
34	1   1   1   1   1   1   1   
35	1   1   1   1   1   1   1   
36	1   1   1   1   1   1   1   
37	1   1   1   1   1   1   1   
38	1   1   1   1   1   1   1   
39	1   1   1   1   1   1   1   
40	1   1   1   1   1   1   1   
41	1   1   1   1   1   1   1   
42	1   1   1   1   1   1   1   
43	1   1   1   1   1   1   1   
44	1   1   1   1   1   1   1   
45	1   1   1   1   1   1   1   
; # availability of resorce k in time slot t

param B: 
	F1  F2  :=
Q1	0   0   
Q2	0   0   
; # if front f requires resources of type q

param U: 
	F1  F2  :=
K1	0   0   
K2	0   0   
K3	0   0   
K4	0   0   
K5	1   1   
K6	0   0   
K7	1   1   
; # transit time of resource

param C:= 
K1 900
K2 900
K3 1500
K4 4500
K5 5500
K6 5500
K7 5500
; #  water capacity of resource k

param S:= 
F1 9
F2 8
; # max number of resources that can fly at front f in the same time slot

param D:= 

[*,*,F1 ]:  K1    K2    K3    K4    K5    K6    K7    :=
1           1.65  1.65  1.65  1.32  0.99  0.99  0.99  
2           1.65  1.65  1.65  1.32  0.99  0.99  0.99  
3           1.65  1.65  1.65  1.32  0.99  0.99  0.99  
4           1.65  1.65  1.65  1.32  0.99  0.99  0.99  
5           1.65  1.65  1.65  1.32  0.99  0.99  0.99  
6           1.65  1.65  1.65  1.32  0.99  0.99  0.99  
7           1.65  1.65  1.65  1.32  0.99  0.99  0.99  
8           1.65  1.65  1.65  1.32  0.99  0.99  0.99  
9           1.65  1.65  1.65  1.32  0.99  0.99  0.99  
10          1.65  1.65  1.65  1.32  0.99  0.99  0.99  
11          1.65  1.65  1.65  1.32  0.99  0.99  0.99  
12          1.65  1.65  1.65  1.32  0.99  0.99  0.99  
13          1.65  1.65  1.65  1.32  0.99  0.99  0.99  
14          1.65  1.65  1.65  1.32  0.99  0.99  0.99  
15          1.65  1.65  1.65  1.32  0.99  0.99  0.99  
16          1.65  1.65  1.65  1.32  0.99  0.99  0.99  
17          1.65  1.65  1.65  1.32  0.99  0.99  0.99  
18          1.65  1.65  1.65  1.32  0.99  0.99  0.99  
19          1.65  1.65  1.65  1.32  0.99  0.99  0.99  
20          1.65  1.65  1.65  1.32  0.99  0.99  0.99  
21          1.65  1.65  1.65  1.32  0.99  0.99  0.99  
22          1.65  1.65  1.65  1.32  0.99  0.99  0.99  
23          1.65  1.65  1.65  1.32  0.99  0.99  0.99  
24          1.65  1.65  1.65  1.32  0.99  0.99  0.99  
25          1.57  1.57  1.57  1.25  0.94  0.94  0.94  
26          1.57  1.57  1.57  1.25  0.94  0.94  0.94  
27          1.57  1.57  1.57  1.25  0.94  0.94  0.94  
28          1.57  1.57  1.57  1.25  0.94  0.94  0.94  
29          1.57  1.57  1.57  1.25  0.94  0.94  0.94  
30          1.57  1.57  1.57  1.25  0.94  0.94  0.94  
31          1.57  1.57  1.57  1.25  0.94  0.94  0.94  
32          1.57  1.57  1.57  1.25  0.94  0.94  0.94  
33          1.57  1.57  1.57  1.25  0.94  0.94  0.94  
34          1.65  1.65  1.65  1.32  0.99  0.99  0.99  
35          1.65  1.65  1.65  1.32  0.99  0.99  0.99  
36          1.65  1.65  1.65  1.32  0.99  0.99  0.99  
37          1.65  1.65  1.65  1.32  0.99  0.99  0.99  
38          1.65  1.65  1.65  1.32  0.99  0.99  0.99  
39          1.65  1.65  1.65  1.32  0.99  0.99  0.99  
40          1.65  1.65  1.65  1.32  0.99  0.99  0.99  
41          1.65  1.65  1.65  1.32  0.99  0.99  0.99  
42          1.65  1.65  1.65  1.32  0.99  0.99  0.99  
43          1.65  1.65  1.65  1.32  0.99  0.99  0.99  
44          1.65  1.65  1.65  1.32  0.99  0.99  0.99  
45          1.65  1.65  1.65  1.32  0.99  0.99  0.99  

[*,*,F2 ]:  K1    K2    K3    K4    K5    K6    K7    :=
1           1.35  1.35  1.35  1.08  0.81  0.81  0.81  
2           1.35  1.35  1.35  1.08  0.81  0.81  0.81  
3           1.35  1.35  1.35  1.08  0.81  0.81  0.81  
4           1.35  1.35  1.35  1.08  0.81  0.81  0.81  
5           1.35  1.35  1.35  1.08  0.81  0.81  0.81  
6           1.35  1.35  1.35  1.08  0.81  0.81  0.81  
7           1.35  1.35  1.35  1.08  0.81  0.81  0.81  
8           1.35  1.35  1.35  1.08  0.81  0.81  0.81  
9           1.35  1.35  1.35  1.08  0.81  0.81  0.81  
10          1.35  1.35  1.35  1.08  0.81  0.81  0.81  
11          1.35  1.35  1.35  1.08  0.81  0.81  0.81  
12          1.35  1.35  1.35  1.08  0.81  0.81  0.81  
13          1.35  1.35  1.35  1.08  0.81  0.81  0.81  
14          1.35  1.35  1.35  1.08  0.81  0.81  0.81  
15          1.35  1.35  1.35  1.08  0.81  0.81  0.81  
16          1.35  1.35  1.35  1.08  0.81  0.81  0.81  
17          1.35  1.35  1.35  1.08  0.81  0.81  0.81  
18          1.35  1.35  1.35  1.08  0.81  0.81  0.81  
19          1.35  1.35  1.35  1.08  0.81  0.81  0.81  
20          1.35  1.35  1.35  1.08  0.81  0.81  0.81  
21          1.35  1.35  1.35  1.08  0.81  0.81  0.81  
22          1.35  1.35  1.35  1.08  0.81  0.81  0.81  
23          1.35  1.35  1.35  1.08  0.81  0.81  0.81  
24          1.35  1.35  1.35  1.08  0.81  0.81  0.81  
25          1.29  1.29  1.29  1.02  0.77  0.77  0.77  
26          1.29  1.29  1.29  1.02  0.77  0.77  0.77  
27          1.29  1.29  1.29  1.02  0.77  0.77  0.77  
28          1.29  1.29  1.29  1.02  0.77  0.77  0.77  
29          1.29  1.29  1.29  1.02  0.77  0.77  0.77  
30          1.29  1.29  1.29  1.02  0.77  0.77  0.77  
31          1.29  1.29  1.29  1.02  0.77  0.77  0.77  
32          1.29  1.29  1.29  1.02  0.77  0.77  0.77  
33          1.29  1.29  1.29  1.02  0.77  0.77  0.77  
34          1.35  1.35  1.35  1.08  0.81  0.81  0.81  
35          1.35  1.35  1.35  1.08  0.81  0.81  0.81  
36          1.35  1.35  1.35  1.08  0.81  0.81  0.81  
37          1.35  1.35  1.35  1.08  0.81  0.81  0.81  
38          1.35  1.35  1.35  1.08  0.81  0.81  0.81  
39          1.35  1.35  1.35  1.08  0.81  0.81  0.81  
40          1.35  1.35  1.35  1.08  0.81  0.81  0.81  
41          1.35  1.35  1.35  1.08  0.81  0.81  0.81  
42          1.35  1.35  1.35  1.08  0.81  0.81  0.81  
43          1.35  1.35  1.35  1.08  0.81  0.81  0.81  
44          1.35  1.35  1.35  1.08  0.81  0.81  0.81  
45          1.35  1.35  1.35  1.08  0.81  0.81  0.81  
; # downloads resource k can do at front f in time t if intermediate time slot

param E:= 

[*,*,F1 ]:  K1    K2    K3    K4    K5    K6    K7    :=
1           0.79  0.08  0.30  0.43  0.14  0.02  0.45  
2           0.79  0.08  0.30  0.43  0.14  0.02  0.45  
3           0.79  0.08  0.30  0.43  0.14  0.02  0.45  
4           0.79  0.08  0.30  0.43  0.14  0.02  0.45  
5           0.79  0.08  0.30  0.43  0.14  0.02  0.45  
6           0.79  0.08  0.30  0.43  0.14  0.02  0.45  
7           0.79  0.08  0.30  0.43  0.14  0.02  0.45  
8           0.79  0.08  0.30  0.43  0.14  0.02  0.45  
9           0.79  0.08  0.30  0.43  0.14  0.02  0.45  
10          0.79  0.08  0.30  0.43  0.14  0.02  0.45  
11          0.79  0.08  0.30  0.43  0.14  0.02  0.45  
12          0.79  0.08  0.30  0.43  0.14  0.02  0.45  
13          0.79  0.08  0.30  0.43  0.14  0.02  0.45  
14          0.79  0.08  0.30  0.43  0.14  0.02  0.45  
15          0.79  0.08  0.30  0.43  0.14  0.02  0.45  
16          0.79  0.08  0.30  0.43  0.14  0.02  0.45  
17          0.79  0.08  0.30  0.43  0.14  0.02  0.45  
18          0.79  0.08  0.30  0.43  0.14  0.02  0.45  
19          0.79  0.08  0.30  0.43  0.14  0.02  0.45  
20          0.79  0.08  0.30  0.43  0.14  0.02  0.45  
21          0.79  0.08  0.30  0.43  0.14  0.02  0.45  
22          0.79  0.08  0.30  0.43  0.14  0.02  0.45  
23          0.79  0.08  0.30  0.43  0.14  0.02  0.45  
24          0.79  0.08  0.30  0.43  0.14  0.02  0.45  
25          0.75  0.08  0.28  0.41  0.13  0.02  0.42  
26          0.75  0.08  0.28  0.41  0.13  0.02  0.42  
27          0.75  0.08  0.28  0.41  0.13  0.02  0.42  
28          0.75  0.08  0.28  0.41  0.13  0.02  0.42  
29          0.75  0.08  0.28  0.41  0.13  0.02  0.42  
30          0.75  0.08  0.28  0.41  0.13  0.02  0.42  
31          0.75  0.08  0.28  0.41  0.13  0.02  0.42  
32          0.75  0.08  0.28  0.41  0.13  0.02  0.42  
33          0.75  0.08  0.28  0.41  0.13  0.02  0.42  
34          0.79  0.08  0.30  0.43  0.14  0.02  0.45  
35          0.79  0.08  0.30  0.43  0.14  0.02  0.45  
36          0.79  0.08  0.30  0.43  0.14  0.02  0.45  
37          0.79  0.08  0.30  0.43  0.14  0.02  0.45  
38          0.79  0.08  0.30  0.43  0.14  0.02  0.45  
39          0.79  0.08  0.30  0.43  0.14  0.02  0.45  
40          0.79  0.08  0.30  0.43  0.14  0.02  0.45  
41          0.79  0.08  0.30  0.43  0.14  0.02  0.45  
42          0.79  0.08  0.30  0.43  0.14  0.02  0.45  
43          0.79  0.08  0.30  0.43  0.14  0.02  0.45  
44          0.79  0.08  0.30  0.43  0.14  0.02  0.45  
45          0.79  0.08  0.30  0.43  0.14  0.02  0.45  

[*,*,F2 ]:  K1    K2    K3    K4    K5    K6    K7    :=
1           0.65  0.14  0.31  0.38  0.09  0.06  0.38  
2           0.65  0.14  0.31  0.38  0.09  0.06  0.38  
3           0.65  0.14  0.31  0.38  0.09  0.06  0.38  
4           0.65  0.14  0.31  0.38  0.09  0.06  0.38  
5           0.65  0.14  0.31  0.38  0.09  0.06  0.38  
6           0.65  0.14  0.31  0.38  0.09  0.06  0.38  
7           0.65  0.14  0.31  0.38  0.09  0.06  0.38  
8           0.65  0.14  0.31  0.38  0.09  0.06  0.38  
9           0.65  0.14  0.31  0.38  0.09  0.06  0.38  
10          0.65  0.14  0.31  0.38  0.09  0.06  0.38  
11          0.65  0.14  0.31  0.38  0.09  0.06  0.38  
12          0.65  0.14  0.31  0.38  0.09  0.06  0.38  
13          0.65  0.14  0.31  0.38  0.09  0.06  0.38  
14          0.65  0.14  0.31  0.38  0.09  0.06  0.38  
15          0.65  0.14  0.31  0.38  0.09  0.06  0.38  
16          0.65  0.14  0.31  0.38  0.09  0.06  0.38  
17          0.65  0.14  0.31  0.38  0.09  0.06  0.38  
18          0.65  0.14  0.31  0.38  0.09  0.06  0.38  
19          0.65  0.14  0.31  0.38  0.09  0.06  0.38  
20          0.65  0.14  0.31  0.38  0.09  0.06  0.38  
21          0.65  0.14  0.31  0.38  0.09  0.06  0.38  
22          0.65  0.14  0.31  0.38  0.09  0.06  0.38  
23          0.65  0.14  0.31  0.38  0.09  0.06  0.38  
24          0.65  0.14  0.31  0.38  0.09  0.06  0.38  
25          0.62  0.13  0.30  0.36  0.08  0.06  0.36  
26          0.62  0.13  0.30  0.36  0.08  0.06  0.36  
27          0.62  0.13  0.30  0.36  0.08  0.06  0.36  
28          0.62  0.13  0.30  0.36  0.08  0.06  0.36  
29          0.62  0.13  0.30  0.36  0.08  0.06  0.36  
30          0.62  0.13  0.30  0.36  0.08  0.06  0.36  
31          0.62  0.13  0.30  0.36  0.08  0.06  0.36  
32          0.62  0.13  0.30  0.36  0.08  0.06  0.36  
33          0.62  0.13  0.30  0.36  0.08  0.06  0.36  
34          0.65  0.14  0.31  0.38  0.09  0.06  0.38  
35          0.65  0.14  0.31  0.38  0.09  0.06  0.38  
36          0.65  0.14  0.31  0.38  0.09  0.06  0.38  
37          0.65  0.14  0.31  0.38  0.09  0.06  0.38  
38          0.65  0.14  0.31  0.38  0.09  0.06  0.38  
39          0.65  0.14  0.31  0.38  0.09  0.06  0.38  
40          0.65  0.14  0.31  0.38  0.09  0.06  0.38  
41          0.65  0.14  0.31  0.38  0.09  0.06  0.38  
42          0.65  0.14  0.31  0.38  0.09  0.06  0.38  
43          0.65  0.14  0.31  0.38  0.09  0.06  0.38  
44          0.65  0.14  0.31  0.38  0.09  0.06  0.38  
45          0.65  0.14  0.31  0.38  0.09  0.06  0.38  
; # downloads resource k can do at front f in time t if starting or ending flight

param W: 
	F1        F2        :=
1	436.16    436.16    
2	1744.64   1744.64   
3	1744.64   1744.64   
4	1744.64   1744.64   
5	1744.64   1744.64   
6	1744.64   1744.64   
7	1744.64   1744.64   
8	1744.64   1744.64   
9	1744.64   1744.64   
10	1744.64   1744.64   
11	1744.64   1744.64   
12	1744.64   1744.64   
13	1744.64   1744.64   
14	1744.64   1744.64   
15	1744.64   1744.64   
16	1744.64   1744.64   
17	1744.64   1744.64   
18	1744.64   1744.64   
19	775.39    775.39    
20	775.39    775.39    
21	775.39    775.39    
22	775.39    775.39    
23	775.39    775.39    
24	775.39    775.39    
25	775.39    775.39    
26	775.39    775.39    
27	775.39    775.39    
28	775.39    775.39    
29	775.39    775.39    
30	775.39    775.39    
31	775.39    775.39    
32	775.39    775.39    
33	775.39    775.39    
34	775.39    775.39    
35	775.39    775.39    
36	775.39    775.39    
37	775.39    775.39    
38	775.39    775.39    
39	775.39    775.39    
40	775.39    775.39    
41	775.39    775.39    
42	775.39    775.39    
43	775.39    775.39    
44	775.39    775.39    
45	193.85    193.85    
; # water needed at front f in time slot t

param M := 100000000; 

param a1:= 10000000;

param a2:= 100;

param a3:= 0.0001;
